
******************************************************************************
This program contains Ipopt, a library for large-scale nonlinear optimization.
 Ipopt is released as open source code under the Eclipse Public License (EPL).
         For more information visit http://projects.coin-or.org/Ipopt

This version of Ipopt was compiled from source code available at
    https://github.com/IDAES/Ipopt as part of the Institute for the Design of
    Advanced Energy Systems Process Systems Engineering Framework (IDAES PSE
    Framework) Copyright (c) 2018-2019. See https://github.com/IDAES/idaes-pse.

This version of Ipopt was compiled using HSL, a collection of Fortran codes
    for large-scale scientific computation.  All technical papers, sales and
    publicity material resulting from use of the HSL codes within IPOPT must
    contain the following acknowledgement:
        HSL, a collection of Fortran codes for large-scale scientific
        computation. See http://www.hsl.rl.ac.uk.
******************************************************************************

This is Ipopt version 3.13.2, running with linear solver ma27.

Number of nonzeros in equality constraint Jacobian...:     1210
Number of nonzeros in inequality constraint Jacobian.:        0
Number of nonzeros in Lagrangian Hessian.............:     1376

Total number of variables............................:      480
                     variables with only lower bounds:      128
                variables with lower and upper bounds:      288
                     variables with only upper bounds:        0
Total number of equality constraints.................:      477
Total number of inequality constraints...............:        0
        inequality constraints with only lower bounds:        0
   inequality constraints with lower and upper bounds:        0
        inequality constraints with only upper bounds:        0

iter    objective    inf_pr   inf_du lg(mu)  ||d||  lg(rg) alpha_du alpha_pr  ls
   0  0.0000000e+00 2.93e-01 6.00e-15  -1.0 0.00e+00    -  0.00e+00 0.00e+00   0
   1  1.2829722e-01 9.50e-03 2.98e+02  -1.0 3.61e+04    -  7.50e-01 9.90e-01h  1
   2  1.3058391e-01 9.80e-05 3.63e+00  -1.0 1.53e+03    -  9.86e-01 9.90e-01h  1
   3  1.3063863e-01 9.89e-07 4.52e+00  -1.0 5.87e+01    -  9.90e-01 9.90e-01h  1
   4  1.3458556e-01 2.89e-07 7.61e+00  -1.0 2.42e+03    -  9.90e-01 9.90e-01H  1
   5  1.3077188e-01 1.29e-07 2.86e+03  -1.7 1.76e+03    -  9.90e-01 9.90e-01H  1
   6  1.2915750e-01 6.80e-08 7.26e+05  -3.8 1.81e+03    -  9.95e-01 1.00e+00H  1
In iteration 6, 32 Slacks too small, adjusting variable bounds
   7  1.2910533e-01 1.51e-09 1.50e+08  -3.8 5.50e+02    -  1.00e+00 1.00e+00H  1
   8  1.2910533e-01 3.75e-11 5.36e-07  -3.8 7.21e-01    -  1.00e+00 1.00e+00h  1
   9  1.2910526e-01 1.43e-10 3.22e+04  -9.0 1.41e+01    -  1.00e+00 1.00e+00H  1
iter    objective    inf_pr   inf_du lg(mu)  ||d||  lg(rg) alpha_du alpha_pr  ls
  10  1.2910526e-01 7.91e-11 8.91e-12  -9.0 3.20e-02    -  1.00e+00 1.00e+00h  1

Number of Iterations....: 10

                                   (scaled)                 (unscaled)
Objective...............:   1.2910525595137420e-01    1.2910525595137420e-01
Dual infeasibility......:   8.9087985679768102e-12    8.9087985679768102e-12
Constraint violation....:   7.9142470355009209e-11    7.9142470355009209e-11
Complementarity.........:   9.0909638916712233e-10    9.0909638916712233e-10
Overall NLP error.......:   9.0909638916712233e-10    9.0909638916712233e-10


Number of objective function evaluations             = 16
Number of objective gradient evaluations             = 11
Number of equality constraint evaluations            = 16
Number of inequality constraint evaluations          = 0
Number of equality constraint Jacobian evaluations   = 11
Number of inequality constraint Jacobian evaluations = 0
Number of Lagrangian Hessian evaluations             = 10
Total CPU secs in IPOPT (w/o function evaluations)   =      0.022
Total CPU secs in NLP function evaluations           =      0.189

EXIT: Optimal Solution Found.
